
;this file is automatically generated: Sun Oct 25 10:43:47 CST 2020

;declarations generated

(declare-fun oclExcludes ( Int Int) Bool)
(declare-fun class16_Class16IntAttr2 ( Int) Int)
(declare-fun Cardinality ( Int) Int)
(declare-fun oclSelect ( Int Bool) Int)
(declare-fun Enum0 ( Int) Int)
(declare-fun Enum1 ( Int) Int)
(declare-fun container_ ( Int) Int)
(declare-fun type_db35c6d0_64e7_4fb3_864f_46f896f804f2_Class21 ( Int) Bool)
(declare-fun oclIncludes ( Int Int) Bool)
(declare-fun obj_429544fd_e9d1_420d_a675_a888dcf2bca4 ( Int) Int)
(declare-fun ObjAt ( Int Int) Int)
(declare-fun type_db35c6d0_64e7_4fb3_864f_46f896f804f2_Class19 ( Int) Bool)
(declare-fun type_db35c6d0_64e7_4fb3_864f_46f896f804f2_Class16 ( Int) Bool)

;formula(s) generated
(assert (! (forall ((c1 Int)) (=> (and (and ( type_db35c6d0_64e7_4fb3_864f_46f896f804f2_Class16 c1 )  ( type_db35c6d0_64e7_4fb3_864f_46f896f804f2_Class19 c1 ) ) ( type_db35c6d0_64e7_4fb3_864f_46f896f804f2_Class21 c1 ) ) (< ( class16_Class16IntAttr2 ( obj_429544fd_e9d1_420d_a675_a888dcf2bca4 c1 )  )  15))):named l0))
(assert (exists ((o Int)) (and (and ( type_db35c6d0_64e7_4fb3_864f_46f896f804f2_Class16 ( obj_429544fd_e9d1_420d_a675_a888dcf2bca4 o )  )  ( type_db35c6d0_64e7_4fb3_864f_46f896f804f2_Class19 ( obj_429544fd_e9d1_420d_a675_a888dcf2bca4 o )  ) ) ( type_db35c6d0_64e7_4fb3_864f_46f896f804f2_Class21 ( obj_429544fd_e9d1_420d_a675_a888dcf2bca4 o )  ) )))

 ;end of formula 